Solver command line: ['C:\\Program Files\\IBM\\ILOG\\CPLEX_Studio2211\\cplex\\bin\\x64_win64\\cplex.exe']


Welcome to IBM(R) ILOG(R) CPLEX(R) Interactive Optimizer 22.1.1.0
  with Simplex, Mixed Integer & Barrier Optimizers
5725-A06 5725-A29 5724-Y48 5724-Y49 5724-Y54 5724-Y55 5655-Y21
Copyright IBM Corp. 1988, 2022.  All Rights Reserved.

Type 'help' for a list of available commands.
Type 'help' followed by a command name for more
information on commands.

CPLEX> Logfile 'cplex.log' closed.
Logfile 'C:\Users\wangy\Documents\GitHub\re_optimization\result_site_specific\tmp8_6iyate.cplex.log' open.
CPLEX> Problem 'C:\Users\wangy\Documents\GitHub\re_optimization\result_site_specific\tmppe4l4h5c.pyomo.lp' read.
Read time = 0.22 sec. (7.29 ticks)
CPLEX> Problem name         : C:\Users\wangy\Documents\GitHub\re_optimization\result_site_specific\tmppe4l4h5c.pyomo.lp
Objective sense      : Minimize
Variables            :   52617  [Nneg: 27764,  Free: 8786,  Binary: 7,
                                 Other: 16060]
Objective nonzeros   :      14
Linear constraints   :   73052  [Less: 39437,  Greater: 3,  Equal: 33612]
  Nonzeros           :  181244
  RHS nonzeros       :    4064

Variables            : Min LB: 0.000000         Max UB: 1.000000       
Objective nonzeros   : Min   : 1.000000         Max   : 1.000000       
Linear constraints   :
  Nonzeros           : Min   : 0.002081811      Max   : 100000.0       
  RHS nonzeros       : Min   : 0.003000000      Max   : 1000.000       
CPLEX> Version identifier: 22.1.1.0 | 2022-11-27 | 9160aff4d
Tried aggregator 3 times.
MIP Presolve eliminated 47826 rows and 28847 columns.
Aggregator did 7385 substitutions.
Reduced MIP has 17841 rows, 16385 columns, and 51762 nonzeros.
Reduced MIP has 5 binaries, 0 generals, 0 SOSs, and 0 indicators.
Presolve time = 0.12 sec. (152.44 ticks)
Found incumbent of value 171985.434188 after 0.16 sec. (177.60 ticks)
Probing time = 0.00 sec. (1.08 ticks)
Tried aggregator 1 time.
Detecting symmetries...
Reduced MIP has 17841 rows, 16385 columns, and 51762 nonzeros.
Reduced MIP has 5 binaries, 0 generals, 0 SOSs, and 0 indicators.
Presolve time = 0.03 sec. (30.64 ticks)
Probing time = 0.00 sec. (0.97 ticks)
MIP emphasis: balance optimality and feasibility.
MIP search method: dynamic search.
Parallel mode: deterministic, using up to 16 threads.
Root relaxation solution time = 0.53 sec. (463.08 ticks)

        Nodes                                         Cuts/
   Node  Left     Objective  IInf  Best Integer    Best Bound    ItCnt     Gap

*     0+    0                       171985.4342    -7348.9625           104.27%
*     0+    0                         5296.5736    -7348.9625           238.75%
      0     0     5292.0671     1     5296.5736     5292.0671       46    0.09%
*     0+    0                         5296.4846     5292.0671             0.08%
      0     0        cutoff           5296.4846                     74    0.00%
Elapsed time = 0.88 sec. (779.46 ticks, tree = 0.01 MB, solutions = 3)

Root node processing (before b&c):
  Real time             =    0.89 sec. (781.96 ticks)
Parallel b&c, 16 threads:
  Real time             =    0.00 sec. (0.00 ticks)
  Sync time (average)   =    0.00 sec.
  Wait time (average)   =    0.00 sec.
                          ------------
Total (root+branch&cut) =    0.89 sec. (781.96 ticks)

Solution pool: 3 solutions saved.

MIP - Integer optimal solution:  Objective =  5.2964846214e+03
Solution time =    0.91 sec.  Iterations = 74  Nodes = 0
Deterministic time = 782.11 ticks  (863.25 ticks/sec)

CPLEX> Incumbent solution written to file 'C:\Users\wangy\Documents\GitHub\re_optimization\result_site_specific\tmp83w81vbg.cplex.sol'.
CPLEX> 
